(set-info :source |printed by MathSAT|)
(declare-fun call_firefly.ite37 () Int)
(declare-fun call_firefly.ite23 () Int)
(declare-fun call_firefly.ite36 () Int)
(declare-fun call_firefly.ite9 () Int)
(declare-fun shared () Int)
(declare-fun call_firefly.mem_invalid () Int)
(declare-fun call_firefly.ite17 () Int)
(declare-fun call_firefly.ite10 () Int)
(declare-fun call_firefly.ite29 () Int)
(declare-fun call_firefly.flby2 () Int)
(declare-fun call_firefly.ite31 () Int)
(declare-fun exclusive () Int)
(declare-fun param_e3 () Bool)
(declare-fun call_firefly.flby () Int)
(declare-fun call_firefly.ite26 () Int)
(declare-fun call_firefly.ite11 () Int)
(declare-fun param_e7 () Bool)
(declare-fun param_e8 () Bool)
(declare-fun call_firefly.ite40 () Int)
(declare-fun call_firefly.ite8 () Int)
(declare-fun call_firefly.ite14 () Int)
(declare-fun call_firefly.ite28 () Int)
(declare-fun call_firefly.ite20 () Int)
(declare-fun call_firefly.ite39 () Int)
(declare-fun call_firefly.dirty () Int)
(declare-fun call_firefly.ite30 () Int)
(declare-fun call_firefly.flby5 () Int)
(declare-fun call_firefly.ite16 () Int)
(declare-fun env () Bool)
(declare-fun call_firefly.ite () Int)
(declare-fun call_firefly.garde3 () Bool)
(declare-fun call_firefly.garde6 () Bool)
(declare-fun call_firefly.ite22 () Int)
(declare-fun call_firefly.ite18 () Int)
(declare-fun call_firefly.ite12 () Int)
(declare-fun call_Sofar.flby () Bool)
(declare-fun param_e2 () Bool)
(declare-fun call_excludes8.excludes () Bool)
(declare-fun call_firefly.ite24 () Int)
(declare-fun call_firefly.ite25 () Int)
(declare-fun call_firefly.ite6 () Int)
(declare-fun call_firefly.invalid () Int)
(declare-fun call_Sofar.Sofar () Bool)
(declare-fun call_firefly.flby3 () Int)
(declare-fun call_firefly.ite3 () Int)
(declare-fun call_firefly.shared () Int)
(declare-fun call_firefly.ite19 () Int)
(declare-fun call_firefly.ite5 () Int)
(declare-fun call_firefly.ite35 () Int)
(declare-fun call_firefly.ite32 () Int)
(declare-fun call_firefly.garde8 () Bool)
(declare-fun param_e6 () Bool)
(declare-fun invalid () Int)
(declare-fun call_firefly.ite27 () Int)
(declare-fun call_firefly.exclusive () Int)
(declare-fun call_firefly.ite4 () Int)
(declare-fun param_i_invalid () Int)
(declare-fun call_firefly.ite33 () Int)
(declare-fun dirty () Int)
(declare-fun param_e4 () Bool)
(declare-fun call_firefly.flby4 () Int)
(declare-fun call_firefly.ite2 () Int)
(declare-fun call_firefly.ite34 () Int)
(declare-fun param_e1 () Bool)
(declare-fun call_firefly.ite7 () Int)
(declare-fun call_firefly.ite13 () Int)
(declare-fun call_firefly.ite38 () Int)
(declare-fun call_firefly.ite21 () Int)
(declare-fun _OK_ () Bool)
(declare-fun param_e5 () Bool)
(declare-fun call_firefly.ite15 () Int)
(define-fun .def_1090 () Bool (= call_Sofar.flby call_Sofar.Sofar))
(define-fun .def_898 () Bool (not param_e1))
(define-fun .def_871 () Bool (not param_e2))
(define-fun .def_1038 () Bool (and .def_871 .def_898))
(define-fun .def_917 () Bool (not param_e3))
(define-fun .def_1039 () Bool (and .def_917 .def_1038))
(define-fun .def_942 () Bool (not param_e4))
(define-fun .def_1040 () Bool (and .def_942 .def_1039))
(define-fun .def_959 () Bool (not param_e5))
(define-fun .def_1041 () Bool (and .def_959 .def_1040))
(define-fun .def_977 () Bool (not param_e6))
(define-fun .def_1042 () Bool (and .def_977 .def_1041))
(define-fun .def_821 () Bool (not param_e7))
(define-fun .def_1043 () Bool (and .def_821 .def_1042))
(define-fun .def_805 () Bool (not param_e8))
(define-fun .def_1079 () Bool (and .def_805 .def_1043))
(define-fun .def_1072 () Bool (and .def_871 param_e1))
(define-fun .def_1073 () Bool (and .def_917 .def_1072))
(define-fun .def_1074 () Bool (and .def_942 .def_1073))
(define-fun .def_1075 () Bool (and .def_959 .def_1074))
(define-fun .def_1076 () Bool (and .def_977 .def_1075))
(define-fun .def_1077 () Bool (and .def_821 .def_1076))
(define-fun .def_1078 () Bool (and .def_805 .def_1077))
(define-fun .def_1080 () Bool (or .def_1078 .def_1079))
(define-fun .def_1065 () Bool (and param_e2 .def_898))
(define-fun .def_1066 () Bool (and .def_917 .def_1065))
(define-fun .def_1067 () Bool (and .def_942 .def_1066))
(define-fun .def_1068 () Bool (and .def_959 .def_1067))
(define-fun .def_1069 () Bool (and .def_977 .def_1068))
(define-fun .def_1070 () Bool (and .def_821 .def_1069))
(define-fun .def_1071 () Bool (and .def_805 .def_1070))
(define-fun .def_1081 () Bool (or .def_1071 .def_1080))
(define-fun .def_1059 () Bool (and param_e3 .def_1038))
(define-fun .def_1060 () Bool (and .def_942 .def_1059))
(define-fun .def_1061 () Bool (and .def_959 .def_1060))
(define-fun .def_1062 () Bool (and .def_977 .def_1061))
(define-fun .def_1063 () Bool (and .def_821 .def_1062))
(define-fun .def_1064 () Bool (and .def_805 .def_1063))
(define-fun .def_1082 () Bool (or .def_1064 .def_1081))
(define-fun .def_1054 () Bool (and param_e4 .def_1039))
(define-fun .def_1055 () Bool (and .def_959 .def_1054))
(define-fun .def_1056 () Bool (and .def_977 .def_1055))
(define-fun .def_1057 () Bool (and .def_821 .def_1056))
(define-fun .def_1058 () Bool (and .def_805 .def_1057))
(define-fun .def_1083 () Bool (or .def_1058 .def_1082))
(define-fun .def_1050 () Bool (and param_e5 .def_1040))
(define-fun .def_1051 () Bool (and .def_977 .def_1050))
(define-fun .def_1052 () Bool (and .def_821 .def_1051))
(define-fun .def_1053 () Bool (and .def_805 .def_1052))
(define-fun .def_1084 () Bool (or .def_1053 .def_1083))
(define-fun .def_1047 () Bool (and param_e6 .def_1041))
(define-fun .def_1048 () Bool (and .def_821 .def_1047))
(define-fun .def_1049 () Bool (and .def_805 .def_1048))
(define-fun .def_1085 () Bool (or .def_1049 .def_1084))
(define-fun .def_1045 () Bool (and param_e7 .def_1042))
(define-fun .def_1046 () Bool (and .def_805 .def_1045))
(define-fun .def_1086 () Bool (or .def_1046 .def_1085))
(define-fun .def_1044 () Bool (and param_e8 .def_1043))
(define-fun .def_1087 () Bool (or .def_1044 .def_1086))
(define-fun .def_1088 () Bool (= call_excludes8.excludes .def_1087))
(define-fun .def_1036 () Bool (= call_firefly.flby call_firefly.mem_invalid))
(define-fun .def_1034 () Bool (= call_firefly.flby5 call_firefly.shared))
(define-fun .def_1032 () Bool (= call_firefly.flby4 call_firefly.exclusive))
(define-fun .def_1030 () Bool (= call_firefly.flby3 call_firefly.dirty))
(define-fun .def_1028 () Bool (= call_firefly.flby2 call_firefly.invalid))
(define-fun .def_1026 () Bool (= env call_Sofar.Sofar))
(define-fun .def_1023 () Bool (= shared call_firefly.shared))
(define-fun .def_1019 () Bool (= exclusive call_firefly.exclusive))
(define-fun .def_1016 () Bool (= dirty call_firefly.dirty))
(define-fun .def_1012 () Bool (= invalid call_firefly.invalid))
(define-fun .def_1005 () Bool (<= 2 exclusive))
(define-fun .def_1006 () Bool (not .def_1005))
(define-fun .def_1003 () Bool (not env))
(define-fun .def_1007 () Bool (or .def_1003 .def_1006))
(define-fun .def_1008 () Bool (= _OK_ .def_1007))
(define-fun .def_997 () Bool (= call_firefly.ite36 call_firefly.ite37))
(define-fun .def_998 () Bool (or param_e7 .def_997))
(define-fun .def_994 () Bool (= call_firefly.ite37 call_firefly.ite34))
(define-fun .def_995 () Bool (or .def_821 .def_994))
(define-fun .def_990 () Bool (= call_firefly.ite8 call_firefly.ite5))
(define-fun .def_991 () Bool (or .def_821 .def_990))
(define-fun .def_987 () Bool (= call_firefly.ite7 call_firefly.ite8))
(define-fun .def_988 () Bool (or param_e7 .def_987))
(define-fun .def_992 () Bool (and .def_988 .def_991))
(define-fun .def_996 () Bool (and .def_992 .def_995))
(define-fun .def_999 () Bool (and .def_996 .def_998))
(define-fun .def_983 () Bool (= call_firefly.ite17 call_firefly.ite18))
(define-fun .def_984 () Bool (or param_e6 .def_983))
(define-fun .def_980 () Bool (= call_firefly.ite15 call_firefly.ite18))
(define-fun .def_981 () Bool (or .def_977 .def_980))
(define-fun .def_976 () Bool (= call_firefly.ite9 call_firefly.ite4))
(define-fun .def_978 () Bool (or .def_976 .def_977))
(define-fun .def_972 () Bool (= call_firefly.ite9 call_firefly.ite8))
(define-fun .def_974 () Bool (or .def_972 param_e6))
(define-fun .def_979 () Bool (and .def_974 .def_978))
(define-fun .def_982 () Bool (and .def_979 .def_981))
(define-fun .def_985 () Bool (and .def_982 .def_984))
(define-fun .def_967 () Bool (= call_firefly.ite38 call_firefly.ite37))
(define-fun .def_968 () Bool (or param_e5 .def_967))
(define-fun .def_963 () Bool (= call_firefly.ite38 call_firefly.ite33))
(define-fun .def_964 () Bool (or .def_959 .def_963))
(define-fun .def_958 () Bool (= call_firefly.ite27 call_firefly.ite24))
(define-fun .def_960 () Bool (or .def_958 .def_959))
(define-fun .def_954 () Bool (= call_firefly.ite26 call_firefly.ite27))
(define-fun .def_956 () Bool (or .def_954 param_e5))
(define-fun .def_961 () Bool (and .def_956 .def_960))
(define-fun .def_965 () Bool (and .def_961 .def_964))
(define-fun .def_969 () Bool (and .def_965 .def_968))
(define-fun .def_950 () Bool (= call_firefly.ite28 call_firefly.ite27))
(define-fun .def_951 () Bool (or param_e4 .def_950))
(define-fun .def_946 () Bool (= call_firefly.ite28 call_firefly.ite23))
(define-fun .def_947 () Bool (or .def_942 .def_946))
(define-fun .def_941 () Bool (= call_firefly.ite19 call_firefly.ite14))
(define-fun .def_943 () Bool (or .def_941 .def_942))
(define-fun .def_937 () Bool (= call_firefly.ite19 call_firefly.ite18))
(define-fun .def_939 () Bool (or .def_937 param_e4))
(define-fun .def_944 () Bool (and .def_939 .def_943))
(define-fun .def_948 () Bool (and .def_944 .def_947))
(define-fun .def_952 () Bool (and .def_948 .def_951))
(define-fun .def_932 () Bool (= call_firefly.ite39 call_firefly.ite38))
(define-fun .def_933 () Bool (or param_e3 .def_932))
(define-fun .def_928 () Bool (= call_firefly.ite39 call_firefly.ite32))
(define-fun .def_929 () Bool (or .def_917 .def_928))
(define-fun .def_924 () Bool (= call_firefly.ite29 call_firefly.ite28))
(define-fun .def_925 () Bool (or param_e3 .def_924))
(define-fun .def_920 () Bool (= call_firefly.ite22 call_firefly.ite29))
(define-fun .def_921 () Bool (or .def_917 .def_920))
(define-fun .def_916 () Bool (= call_firefly.ite10 call_firefly.ite3))
(define-fun .def_918 () Bool (or .def_916 .def_917))
(define-fun .def_912 () Bool (= call_firefly.ite10 call_firefly.ite9))
(define-fun .def_914 () Bool (or .def_912 param_e3))
(define-fun .def_919 () Bool (and .def_914 .def_918))
(define-fun .def_922 () Bool (and .def_919 .def_921))
(define-fun .def_926 () Bool (and .def_922 .def_925))
(define-fun .def_930 () Bool (and .def_926 .def_929))
(define-fun .def_934 () Bool (and .def_930 .def_933))
(define-fun .def_907 () Bool (= call_firefly.ite30 call_firefly.ite29))
(define-fun .def_908 () Bool (or param_e1 .def_907))
(define-fun .def_903 () Bool (= call_firefly.ite21 call_firefly.ite30))
(define-fun .def_904 () Bool (or .def_898 .def_903))
(define-fun .def_897 () Bool (= call_firefly.ite12 call_firefly.ite))
(define-fun .def_899 () Bool (or .def_897 .def_898))
(define-fun .def_893 () Bool (= call_firefly.ite11 call_firefly.ite12))
(define-fun .def_895 () Bool (or .def_893 param_e1))
(define-fun .def_900 () Bool (and .def_895 .def_899))
(define-fun .def_905 () Bool (and .def_900 .def_904))
(define-fun .def_909 () Bool (and .def_905 .def_908))
(define-fun .def_889 () Bool (= call_firefly.ite40 call_firefly.ite39))
(define-fun .def_890 () Bool (or param_e2 .def_889))
(define-fun .def_885 () Bool (= call_firefly.ite31 call_firefly.ite40))
(define-fun .def_886 () Bool (or .def_871 .def_885))
(define-fun .def_880 () Bool (= call_firefly.ite20 call_firefly.ite19))
(define-fun .def_881 () Bool (or param_e2 .def_880))
(define-fun .def_876 () Bool (= call_firefly.ite13 call_firefly.ite20))
(define-fun .def_877 () Bool (or .def_871 .def_876))
(define-fun .def_870 () Bool (= call_firefly.ite11 call_firefly.ite2))
(define-fun .def_872 () Bool (or .def_870 .def_871))
(define-fun .def_866 () Bool (= call_firefly.ite11 call_firefly.ite10))
(define-fun .def_868 () Bool (or .def_866 param_e2))
(define-fun .def_873 () Bool (and .def_868 .def_872))
(define-fun .def_878 () Bool (and .def_873 .def_877))
(define-fun .def_882 () Bool (and .def_878 .def_881))
(define-fun .def_887 () Bool (and .def_882 .def_886))
(define-fun .def_891 () Bool (and .def_887 .def_890))
(define-fun .def_910 () Bool (and .def_891 .def_909))
(define-fun .def_935 () Bool (and .def_910 .def_934))
(define-fun .def_953 () Bool (and .def_935 .def_952))
(define-fun .def_970 () Bool (and .def_953 .def_969))
(define-fun .def_986 () Bool (and .def_970 .def_985))
(define-fun .def_1000 () Bool (and .def_986 .def_999))
(define-fun .def_1009 () Bool (and .def_1000 .def_1008))
(define-fun .def_1013 () Bool (and .def_1009 .def_1012))
(define-fun .def_1017 () Bool (and .def_1013 .def_1016))
(define-fun .def_1020 () Bool (and .def_1017 .def_1019))
(define-fun .def_1024 () Bool (and .def_1020 .def_1023))
(define-fun .def_1027 () Bool (and .def_1024 .def_1026))
(define-fun .def_1029 () Bool (and .def_1027 .def_1028))
(define-fun .def_1031 () Bool (and .def_1029 .def_1030))
(define-fun .def_1033 () Bool (and .def_1031 .def_1032))
(define-fun .def_1035 () Bool (and .def_1033 .def_1034))
(define-fun .def_1037 () Bool (and .def_1035 .def_1036))
(define-fun .def_1089 () Bool (and .def_1037 .def_1088))
(define-fun .def_1091 () Bool (and .def_1089 .def_1090))
(define-fun .def_858 () Bool (<= 0 param_i_invalid))
(define-fun .def_860 () Bool (and .def_858 call_excludes8.excludes))
(define-fun .def_862 () Bool (= .def_860 call_Sofar.flby))
(define-fun .def_856 () Bool (= call_firefly.flby5 0))
(define-fun .def_853 () Bool (= call_firefly.flby4 0))
(define-fun .def_850 () Bool (= call_firefly.flby3 0))
(define-fun .def_847 () Bool (= call_firefly.flby2 call_firefly.mem_invalid))
(define-fun .def_843 () Bool (= param_i_invalid call_firefly.flby))
(define-fun .def_838 () Bool (= call_firefly.ite25 0))
(define-fun .def_837 () Bool (not call_firefly.garde8))
(define-fun .def_839 () Bool (or .def_837 .def_838))
(define-fun .def_833 () Bool (= call_firefly.ite15 1))
(define-fun .def_831 () Bool (not call_firefly.garde6))
(define-fun .def_834 () Bool (or .def_831 .def_833))
(define-fun .def_827 () Bool (= call_firefly.ite22 0))
(define-fun .def_825 () Bool (not call_firefly.garde3))
(define-fun .def_828 () Bool (or .def_825 .def_827))
(define-fun .def_819 () Bool (= call_firefly.ite16 call_firefly.ite17))
(define-fun .def_822 () Bool (or .def_819 .def_821))
(define-fun .def_814 () Bool (= call_firefly.ite35 call_firefly.ite36))
(define-fun .def_815 () Bool (or .def_805 .def_814))
(define-fun .def_809 () Bool (= call_firefly.ite6 call_firefly.ite7))
(define-fun .def_810 () Bool (or .def_805 .def_809))
(define-fun .def_803 () Bool (= call_firefly.ite25 call_firefly.ite26))
(define-fun .def_806 () Bool (or .def_803 .def_805))
(define-fun .def_811 () Bool (and .def_806 .def_810))
(define-fun .def_816 () Bool (and .def_811 .def_815))
(define-fun .def_823 () Bool (and .def_816 .def_822))
(define-fun .def_829 () Bool (and .def_823 .def_828))
(define-fun .def_835 () Bool (and .def_829 .def_834))
(define-fun .def_840 () Bool (and .def_835 .def_839))
(define-fun .def_844 () Bool (and .def_840 .def_843))
(define-fun .def_848 () Bool (and .def_844 .def_847))
(define-fun .def_851 () Bool (and .def_848 .def_850))
(define-fun .def_854 () Bool (and .def_851 .def_853))
(define-fun .def_857 () Bool (and .def_854 .def_856))
(define-fun .def_863 () Bool (and .def_857 .def_862))
(define-fun .def_1092 () Bool (and .def_863 .def_1091))
(assert .def_1092)
